(set-info :smt-lib-version 2.6)
(set-logic QF_LRA)
(set-info :source |
Fully parameterized specification and verification of a synchronizer   
circuit modeling metastability at various levels of refinement.     
A paper describing this specification, to be published in Designing     
Correct Circuits (DCC), 2006, is available from the authors.            

Geoffrey Brown, Indiana University <geobrown@cs.indiana.edu>
Lee Pike, Galois Connections, Inc. <leepike@galois.com>

Translated into CVC format by Leonardo de Moura.

This benchmark was automatically translated into SMT-LIB format from
CVC format using CVC Lite

|)
(set-info :category "industrial")
(set-info :status sat)
(declare-fun x_0 () Bool)
(declare-fun x_1 () Bool)
(declare-fun x_2 () Real)
(declare-fun x_3 () Real)
(declare-fun x_4 () Bool)
(declare-fun x_5 () Bool)
(declare-fun x_6 () Real)
(declare-fun x_7 () Real)
(declare-fun x_8 () Bool)
(declare-fun x_9 () Bool)
(declare-fun x_10 () Real)
(declare-fun x_11 () Real)
(declare-fun x_12 () Bool)
(declare-fun x_13 () Bool)
(declare-fun x_14 () Real)
(declare-fun x_15 () Real)
(declare-fun x_16 () Bool)
(declare-fun x_17 () Bool)
(declare-fun x_18 () Real)
(declare-fun x_19 () Real)
(declare-fun x_20 () Bool)
(declare-fun x_21 () Bool)
(declare-fun x_22 () Real)
(declare-fun x_23 () Real)
(declare-fun x_24 () Real)
(declare-fun x_25 () Real)
(declare-fun x_26 () Real)
(declare-fun x_27 () Real)
(declare-fun x_28 () Real)
(declare-fun x_29 () Real)
(declare-fun x_30 () Real)
(declare-fun x_31 () Real)
(declare-fun x_32 () Real)
(declare-fun x_33 () Real)
(declare-fun x_34 () Bool)
(declare-fun x_35 () Bool)
(declare-fun x_36 () Real)
(declare-fun x_37 () Real)
(declare-fun x_38 () Real)
(declare-fun x_39 () Real)
(declare-fun x_40 () Bool)
(declare-fun x_41 () Bool)
(declare-fun x_42 () Bool)
(declare-fun x_43 () Bool)
(declare-fun x_44 () Bool)
(declare-fun x_45 () Real)
(declare-fun x_46 () Bool)
(declare-fun x_47 () Real)
(declare-fun x_48 () Real)
(declare-fun x_49 () Real)
(declare-fun x_50 () Real)
(declare-fun x_51 () Real)
(declare-fun x_52 () Real)
(declare-fun x_53 () Real)
(declare-fun x_54 () Real)
(declare-fun x_55 () Real)
(declare-fun x_56 () Bool)
(declare-fun x_57 () Real)
(declare-fun x_58 () Bool)
(declare-fun x_59 () Bool)
(declare-fun x_60 () Real)
(declare-fun x_61 () Bool)
(declare-fun x_62 () Real)
(declare-fun x_63 () Real)
(declare-fun x_64 () Real)
(declare-fun x_65 () Real)
(declare-fun x_66 () Real)
(declare-fun x_67 () Real)
(declare-fun x_68 () Real)
(declare-fun x_69 () Real)
(declare-fun x_70 () Bool)
(declare-fun x_71 () Real)
(declare-fun x_72 () Bool)
(declare-fun x_73 () Bool)
(declare-fun x_74 () Real)
(declare-fun x_75 () Bool)
(declare-fun x_76 () Real)
(declare-fun x_77 () Real)
(declare-fun x_78 () Real)
(declare-fun x_79 () Real)
(declare-fun x_80 () Real)
(declare-fun x_81 () Real)
(declare-fun x_82 () Real)
(declare-fun x_83 () Real)
(declare-fun x_84 () Bool)
(declare-fun x_85 () Real)
(declare-fun x_86 () Bool)
(declare-fun x_87 () Bool)
(declare-fun x_88 () Real)
(declare-fun x_89 () Bool)
(declare-fun x_90 () Real)
(declare-fun x_91 () Real)
(declare-fun x_92 () Real)
(declare-fun x_93 () Real)
(declare-fun x_94 () Real)
(declare-fun x_95 () Real)
(declare-fun x_96 () Real)
(declare-fun x_97 () Real)
(declare-fun x_98 () Bool)
(declare-fun x_99 () Real)
(declare-fun x_100 () Bool)
(declare-fun x_101 () Bool)
(declare-fun x_102 () Real)
(declare-fun x_103 () Bool)
(declare-fun x_104 () Real)
(declare-fun x_105 () Real)
(declare-fun x_106 () Real)
(declare-fun x_107 () Real)
(declare-fun x_108 () Real)
(declare-fun x_109 () Real)
(declare-fun x_110 () Real)
(declare-fun x_111 () Real)
(declare-fun x_112 () Bool)
(declare-fun x_113 () Real)
(declare-fun x_114 () Real)
(declare-fun x_115 () Bool)
(declare-fun x_116 () Bool)
(declare-fun x_117 () Bool)
(declare-fun x_118 () Bool)
(declare-fun x_119 () Real)
(declare-fun x_120 () Bool)
(declare-fun x_121 () Real)
(declare-fun x_122 () Real)
(declare-fun x_123 () Real)
(declare-fun x_124 () Real)
(assert (let ((?v_71 (= x_24 x_25)) (?v_72 (= x_26 x_27)) (?v_73 (= x_28 x_29)) (?v_69 (= x_30 x_31))) (let ((?v_74 (not ?v_69)) (?v_77 (= x_32 x_33)) (?v_66 (= x_34 x_35)) (?v_67 (= x_7 x_3)) (?v_70 (ite (<= x_26 x_30) x_26 x_30)) (?v_65 (ite (<= x_30 x_26) x_30 x_26)) (?v_58 (= x_51 x_24)) (?v_59 (= x_27 x_52)) (?v_60 (= x_53 x_28)) (?v_56 (= x_31 x_54))) (let ((?v_61 (not ?v_56)) (?v_64 (= x_55 x_32)) (?v_53 (= x_56 x_34)) (?v_54 (= x_11 x_7)) (?v_57 (ite (<= x_27 x_31) x_27 x_31)) (?v_52 (ite (<= x_31 x_27) x_31 x_27)) (?v_45 (= x_65 x_51)) (?v_46 (= x_52 x_66)) (?v_47 (= x_67 x_53)) (?v_43 (= x_54 x_68))) (let ((?v_48 (not ?v_43)) (?v_51 (= x_69 x_55)) (?v_40 (= x_70 x_56)) (?v_41 (= x_15 x_11)) (?v_44 (ite (<= x_52 x_54) x_52 x_54)) (?v_39 (ite (<= x_54 x_52) x_54 x_52)) (?v_32 (= x_79 x_65)) (?v_33 (= x_66 x_80)) (?v_34 (= x_81 x_67)) (?v_30 (= x_68 x_82))) (let ((?v_35 (not ?v_30)) (?v_38 (= x_83 x_69)) (?v_27 (= x_84 x_70)) (?v_28 (= x_19 x_15)) (?v_31 (ite (<= x_66 x_68) x_66 x_68)) (?v_26 (ite (<= x_68 x_66) x_68 x_66)) (?v_19 (= x_93 x_79)) (?v_20 (= x_80 x_94)) (?v_21 (= x_95 x_81)) (?v_17 (= x_82 x_96))) (let ((?v_22 (not ?v_17)) (?v_25 (= x_97 x_83)) (?v_14 (= x_98 x_84)) (?v_15 (= x_23 x_19)) (?v_18 (ite (<= x_80 x_82) x_80 x_82)) (?v_13 (ite (<= x_82 x_80) x_82 x_80)) (?v_6 (= x_107 x_93)) (?v_7 (= x_94 x_108)) (?v_8 (= x_109 x_95)) (?v_4 (= x_96 x_110))) (let ((?v_9 (not ?v_4)) (?v_12 (= x_111 x_97)) (?v_1 (= x_112 x_98)) (?v_2 (= x_113 x_23)) (?v_5 (ite (<= x_94 x_96) x_94 x_96)) (?v_0 (ite (<= x_96 x_94) x_96 x_94)) (?v_3 (= x_116 x_21)) (?v_11 (= x_23 x_113)) (?v_16 (= x_21 x_17)) (?v_24 (= x_19 x_23)) (?v_29 (= x_17 x_13)) (?v_37 (= x_15 x_19)) (?v_42 (= x_13 x_9)) (?v_50 (= x_11 x_15)) (?v_55 (= x_9 x_5)) (?v_63 (= x_7 x_11)) (?v_68 (= x_5 x_1)) (?v_76 (= x_3 x_7))) (let ((?v_10 (+ ?v_5 x_38)) (?v_23 (+ ?v_18 x_38)) (?v_36 (+ ?v_31 x_38)) (?v_49 (+ ?v_44 x_38)) (?v_62 (+ ?v_57 x_38)) (?v_75 (+ ?v_70 x_38))) (and (and (and (and (and (and (and (and (and (and (and (and (and (and (and (and (and (and (and (and (and (and (and (and (and (and (and (and (and (and (and (and (and (and (and (and (and (and (and (> x_36 0) (> x_37 0)) (>= x_38 0)) (< x_38 x_36)) (< x_38 x_37)) (>= x_49 0)) (< x_49 x_36)) (< x_49 x_37)) (or (= x_20 x_21) (= x_22 x_23))) (or (= x_16 x_17) (= x_18 x_19))) (or (= x_12 x_13) (= x_14 x_15))) (or (= x_8 x_9) (= x_10 x_11))) (or (= x_4 x_5) (= x_6 x_7))) (or (= x_0 x_1) (= x_2 x_3))) (or (and (and (and (and (and (and (and (and (and (= x_114 0) (= x_115 x_103)) (= ?v_0 x_96)) (<= (+ ?v_0 x_36) x_110)) (or ?v_3 (= x_116 x_20))) (= x_117 x_100)) (= x_118 x_101)) (= x_108 x_94)) ?v_1) ?v_2) (and (and (and (and (and (and (and (and (and (= x_114 1) (= x_118 x_100)) (= ?v_0 x_94)) (<= (+ ?v_0 x_37) x_108)) (or (and (and (= x_119 0) ?v_1) ?v_2) (and (and (= x_119 1) (= x_98 x_101)) (= x_112 (not x_98))))) (= x_120 x_103)) (= x_115 x_20)) (= x_121 x_22)) (= x_110 x_96)) ?v_3))) (or (or (and (and (and (= x_122 0) ?v_9) (or (not (<= x_93 ?v_5)) (= x_120 x_98))) ?v_6) (and (and (and (= x_122 1) ?v_4) (xor x_98 x_112)) (= x_107 ?v_10))) (and (and (and (= x_122 2) ?v_4) (= x_98 x_112)) ?v_6))) (or (or (and (and (and (= x_123 0) (not ?v_7)) (or (not (<= x_95 ?v_0)) (= x_117 x_21))) ?v_8) (and (and (and (= x_123 1) ?v_7) (xor x_21 x_116)) (= x_109 (+ ?v_0 x_49)))) (and (and (and (= x_123 2) ?v_7) (= x_21 x_116)) ?v_8))) (or (or (and (and (and (= x_124 0) ?v_9) (or (not (<= x_97 ?v_5)) (= x_121 x_23))) ?v_12) (and (and (and (= x_124 1) ?v_4) (not ?v_11)) (= x_111 ?v_10))) (and (and (and (= x_124 2) ?v_4) ?v_11) ?v_12))) (or (and (and (and (and (and (and (and (and (and (= x_99 0) (= x_20 x_89)) (= ?v_13 x_82)) (<= (+ ?v_13 x_36) x_96)) (or ?v_16 (= x_21 x_16))) (= x_100 x_86)) (= x_101 x_87)) (= x_94 x_80)) ?v_14) ?v_15) (and (and (and (and (and (and (and (and (and (= x_99 1) (= x_101 x_86)) (= ?v_13 x_80)) (<= (+ ?v_13 x_37) x_94)) (or (and (and (= x_102 0) ?v_14) ?v_15) (and (and (= x_102 1) (= x_84 x_87)) (= x_98 (not x_84))))) (= x_103 x_89)) (= x_20 x_16)) (= x_22 x_18)) (= x_96 x_82)) ?v_16))) (or (or (and (and (and (= x_104 0) ?v_22) (or (not (<= x_79 ?v_18)) (= x_103 x_84))) ?v_19) (and (and (and (= x_104 1) ?v_17) (xor x_84 x_98)) (= x_93 ?v_23))) (and (and (and (= x_104 2) ?v_17) (= x_84 x_98)) ?v_19))) (or (or (and (and (and (= x_105 0) (not ?v_20)) (or (not (<= x_81 ?v_13)) (= x_100 x_17))) ?v_21) (and (and (and (= x_105 1) ?v_20) (xor x_17 x_21)) (= x_95 (+ ?v_13 x_49)))) (and (and (and (= x_105 2) ?v_20) (= x_17 x_21)) ?v_21))) (or (or (and (and (and (= x_106 0) ?v_22) (or (not (<= x_83 ?v_18)) (= x_22 x_19))) ?v_25) (and (and (and (= x_106 1) ?v_17) (not ?v_24)) (= x_97 ?v_23))) (and (and (and (= x_106 2) ?v_17) ?v_24) ?v_25))) (or (and (and (and (and (and (and (and (and (and (= x_85 0) (= x_16 x_75)) (= ?v_26 x_68)) (<= (+ ?v_26 x_36) x_82)) (or ?v_29 (= x_17 x_12))) (= x_86 x_72)) (= x_87 x_73)) (= x_80 x_66)) ?v_27) ?v_28) (and (and (and (and (and (and (and (and (and (= x_85 1) (= x_87 x_72)) (= ?v_26 x_66)) (<= (+ ?v_26 x_37) x_80)) (or (and (and (= x_88 0) ?v_27) ?v_28) (and (and (= x_88 1) (= x_70 x_73)) (= x_84 (not x_70))))) (= x_89 x_75)) (= x_16 x_12)) (= x_18 x_14)) (= x_82 x_68)) ?v_29))) (or (or (and (and (and (= x_90 0) ?v_35) (or (not (<= x_65 ?v_31)) (= x_89 x_70))) ?v_32) (and (and (and (= x_90 1) ?v_30) (xor x_70 x_84)) (= x_79 ?v_36))) (and (and (and (= x_90 2) ?v_30) (= x_70 x_84)) ?v_32))) (or (or (and (and (and (= x_91 0) (not ?v_33)) (or (not (<= x_67 ?v_26)) (= x_86 x_13))) ?v_34) (and (and (and (= x_91 1) ?v_33) (xor x_13 x_17)) (= x_81 (+ ?v_26 x_49)))) (and (and (and (= x_91 2) ?v_33) (= x_13 x_17)) ?v_34))) (or (or (and (and (and (= x_92 0) ?v_35) (or (not (<= x_69 ?v_31)) (= x_18 x_15))) ?v_38) (and (and (and (= x_92 1) ?v_30) (not ?v_37)) (= x_83 ?v_36))) (and (and (and (= x_92 2) ?v_30) ?v_37) ?v_38))) (or (and (and (and (and (and (and (and (and (and (= x_71 0) (= x_12 x_61)) (= ?v_39 x_54)) (<= (+ ?v_39 x_36) x_68)) (or ?v_42 (= x_13 x_8))) (= x_72 x_58)) (= x_73 x_59)) (= x_66 x_52)) ?v_40) ?v_41) (and (and (and (and (and (and (and (and (and (= x_71 1) (= x_73 x_58)) (= ?v_39 x_52)) (<= (+ ?v_39 x_37) x_66)) (or (and (and (= x_74 0) ?v_40) ?v_41) (and (and (= x_74 1) (= x_56 x_59)) (= x_70 (not x_56))))) (= x_75 x_61)) (= x_12 x_8)) (= x_14 x_10)) (= x_68 x_54)) ?v_42))) (or (or (and (and (and (= x_76 0) ?v_48) (or (not (<= x_51 ?v_44)) (= x_75 x_56))) ?v_45) (and (and (and (= x_76 1) ?v_43) (xor x_56 x_70)) (= x_65 ?v_49))) (and (and (and (= x_76 2) ?v_43) (= x_56 x_70)) ?v_45))) (or (or (and (and (and (= x_77 0) (not ?v_46)) (or (not (<= x_53 ?v_39)) (= x_72 x_9))) ?v_47) (and (and (and (= x_77 1) ?v_46) (xor x_9 x_13)) (= x_67 (+ ?v_39 x_49)))) (and (and (and (= x_77 2) ?v_46) (= x_9 x_13)) ?v_47))) (or (or (and (and (and (= x_78 0) ?v_48) (or (not (<= x_55 ?v_44)) (= x_14 x_11))) ?v_51) (and (and (and (= x_78 1) ?v_43) (not ?v_50)) (= x_69 ?v_49))) (and (and (and (= x_78 2) ?v_43) ?v_50) ?v_51))) (or (and (and (and (and (and (and (and (and (and (= x_57 0) (= x_8 x_46)) (= ?v_52 x_31)) (<= (+ ?v_52 x_36) x_54)) (or ?v_55 (= x_9 x_4))) (= x_58 x_41)) (= x_59 x_43)) (= x_52 x_27)) ?v_53) ?v_54) (and (and (and (and (and (and (and (and (and (= x_57 1) (= x_59 x_41)) (= ?v_52 x_27)) (<= (+ ?v_52 x_37) x_52)) (or (and (and (= x_60 0) ?v_53) ?v_54) (and (and (= x_60 1) (= x_34 x_43)) (= x_56 (not x_34))))) (= x_61 x_46)) (= x_8 x_4)) (= x_10 x_6)) (= x_54 x_31)) ?v_55))) (or (or (and (and (and (= x_62 0) ?v_61) (or (not (<= x_24 ?v_57)) (= x_61 x_34))) ?v_58) (and (and (and (= x_62 1) ?v_56) (xor x_34 x_56)) (= x_51 ?v_62))) (and (and (and (= x_62 2) ?v_56) (= x_34 x_56)) ?v_58))) (or (or (and (and (and (= x_63 0) (not ?v_59)) (or (not (<= x_28 ?v_52)) (= x_58 x_5))) ?v_60) (and (and (and (= x_63 1) ?v_59) (xor x_5 x_9)) (= x_53 (+ ?v_52 x_49)))) (and (and (and (= x_63 2) ?v_59) (= x_5 x_9)) ?v_60))) (or (or (and (and (and (= x_64 0) ?v_61) (or (not (<= x_32 ?v_57)) (= x_10 x_7))) ?v_64) (and (and (and (= x_64 1) ?v_56) (not ?v_63)) (= x_55 ?v_62))) (and (and (and (= x_64 2) ?v_56) ?v_63) ?v_64))) (or (and (and (and (and (and (and (and (and (and (= x_39 0) (= x_4 x_40)) (= ?v_65 x_30)) (<= (+ ?v_65 x_36) x_31)) (or ?v_68 (= x_5 x_0))) (= x_41 x_42)) (= x_43 x_44)) (= x_27 x_26)) ?v_66) ?v_67) (and (and (and (and (and (and (and (and (and (= x_39 1) (= x_43 x_42)) (= ?v_65 x_26)) (<= (+ ?v_65 x_37) x_27)) (or (and (and (= x_45 0) ?v_66) ?v_67) (and (and (= x_45 1) (= x_35 x_44)) (= x_34 (not x_35))))) (= x_46 x_40)) (= x_4 x_0)) (= x_6 x_2)) (= x_31 x_30)) ?v_68))) (or (or (and (and (and (= x_47 0) ?v_74) (or (not (<= x_25 ?v_70)) (= x_46 x_35))) ?v_71) (and (and (and (= x_47 1) ?v_69) (xor x_35 x_34)) (= x_24 ?v_75))) (and (and (and (= x_47 2) ?v_69) (= x_35 x_34)) ?v_71))) (or (or (and (and (and (= x_48 0) (not ?v_72)) (or (not (<= x_29 ?v_65)) (= x_41 x_1))) ?v_73) (and (and (and (= x_48 1) ?v_72) (xor x_1 x_5)) (= x_28 (+ ?v_65 x_49)))) (and (and (and (= x_48 2) ?v_72) (= x_1 x_5)) ?v_73))) (or (or (and (and (and (= x_50 0) ?v_74) (or (not (<= x_33 ?v_70)) (= x_6 x_3))) ?v_77) (and (and (and (= x_50 1) ?v_69) (not ?v_76)) (= x_32 ?v_75))) (and (and (and (= x_50 2) ?v_69) ?v_76) ?v_77))) (xor x_115 x_116)) (not (= x_121 x_113))))))))))))
(check-sat)
(exit)
